100
120
98
98
97
97
96
96
96
95
95
95
95
93
92
92
90
90
90
89
88
88
88
85
84
84
82
81
81
80
79
79
77
77
74
73
73
72
71
70
70
70
68
67
66
65
65
64
63
63
63
60
58
58
58
57
56
56
56
56
56
55
52
51
51
50
49
49
48
48
46
45
45
44
43
43
42
41
41
38
36
36
35
34
34
33
32
31
31
30
30
30
29
28
27
26
26
26
23
22
21
20
